logs/miss/qp/miss-05-15-0.lp
\ LP format - for model browsing. Use MPS format to capture full model detail.
Minimize
  x0 + x1 + x2 + x3 + x4 + x5 + x6 + x7 + x8 + x9 + x10 + x11 + x12 + x13
   + x14 + x15 + x16 + x17 + x18 + x19 + x20 + x21 + x22 + x23 + x24 + x25
   + x26 + x27 + x28 + x29 + x30 + x31 + x32 + x33 + x34 + x35 + x36 + x37
   + x38 + x39 + x40 + x41 + x42 + x43 + x44 + x45 + x46 + x47 + x48 + x49
   + x50 + x51 + x52 + x53 + x54 + x55 + x56 + x57 + x58 + x59 + x60 + x61
   + x62 + x63 + x64 + x65 + x66 + x67 + x68 + x69 + x70 + x71 + x72 + x73
   + x74 + x75 + x76 + x77 + x78 + x79 + x80 + x81 + x82 + x83
Subject To
 R0: x0 = 1
 qc0: [ x0 * x6 + x1 * x7 + x2 * x8 + x3 * x9 + x4 * x10 + x5 * x11
   + x6 * x12 + x7 * x13 + x8 * x14 + x9 * x15 + x10 * x16 + x11 * x17
   + x12 * x18 + x13 * x19 + x14 * x20 + x15 * x21 + x16 * x22 + x17 * x23
   + x18 * x24 + x19 * x25 + x20 * x26 + x21 * x27 + x22 * x28 + x23 * x29
   + x24 * x30 + x25 * x31 + x26 * x32 + x27 * x33 + x28 * x34 + x29 * x35
   + x30 * x36 + x31 * x37 + x32 * x38 + x33 * x39 + x34 * x40 + x35 * x41
   + x36 * x42 + x37 * x43 + x38 * x44 + x39 * x45 + x40 * x46 + x41 * x47
   + x42 * x48 + x43 * x49 + x44 * x50 + x45 * x51 + x46 * x52 + x47 * x53
   + x48 * x54 + x49 * x55 + x50 * x56 + x51 * x57 + x52 * x58 + x53 * x59
   + x54 * x60 + x55 * x61 + x56 * x62 + x57 * x63 + x58 * x64 + x59 * x65
   + x60 * x66 + x61 * x67 + x62 * x68 + x63 * x69 + x64 * x70 + x65 * x71
   + x66 * x72 + x67 * x73 + x68 * x74 + x69 * x75 + x70 * x76 + x71 * x77
   + x72 * x78 + x73 * x79 + x74 * x80 + x75 * x81 + x76 * x82 + x77 * x83
   ] >= 1
 qc1: [ x0 * x9 + x1 * x10 + x2 * x11 + x3 * x12 + x4 * x13 + x5 * x14
   + x6 * x15 + x7 * x16 + x8 * x17 + x9 * x18 + x10 * x19 + x11 * x20
   + x12 * x21 + x13 * x22 + x14 * x23 + x15 * x24 + x16 * x25 + x17 * x26
   + x18 * x27 + x19 * x28 + x20 * x29 + x21 * x30 + x22 * x31 + x23 * x32
   + x24 * x33 + x25 * x34 + x26 * x35 + x27 * x36 + x28 * x37 + x29 * x38
   + x30 * x39 + x31 * x40 + x32 * x41 + x33 * x42 + x34 * x43 + x35 * x44
   + x36 * x45 + x37 * x46 + x38 * x47 + x39 * x48 + x40 * x49 + x41 * x50
   + x42 * x51 + x43 * x52 + x44 * x53 + x45 * x54 + x46 * x55 + x47 * x56
   + x48 * x57 + x49 * x58 + x50 * x59 + x51 * x60 + x52 * x61 + x53 * x62
   + x54 * x63 + x55 * x64 + x56 * x65 + x57 * x66 + x58 * x67 + x59 * x68
   + x60 * x69 + x61 * x70 + x62 * x71 + x63 * x72 + x64 * x73 + x65 * x74
   + x66 * x75 + x67 * x76 + x68 * x77 + x69 * x78 + x70 * x79 + x71 * x80
   + x72 * x81 + x73 * x82 + x74 * x83 ] >= 1
 qc2: [ x0 * x15 + x1 * x16 + x2 * x17 + x3 * x18 + x4 * x19 + x5 * x20
   + x6 * x21 + x7 * x22 + x8 * x23 + x9 * x24 + x10 * x25 + x11 * x26
   + x12 * x27 + x13 * x28 + x14 * x29 + x15 * x30 + x16 * x31 + x17 * x32
   + x18 * x33 + x19 * x34 + x20 * x35 + x21 * x36 + x22 * x37 + x23 * x38
   + x24 * x39 + x25 * x40 + x26 * x41 + x27 * x42 + x28 * x43 + x29 * x44
   + x30 * x45 + x31 * x46 + x32 * x47 + x33 * x48 + x34 * x49 + x35 * x50
   + x36 * x51 + x37 * x52 + x38 * x53 + x39 * x54 + x40 * x55 + x41 * x56
   + x42 * x57 + x43 * x58 + x44 * x59 + x45 * x60 + x46 * x61 + x47 * x62
   + x48 * x63 + x49 * x64 + x50 * x65 + x51 * x66 + x52 * x67 + x53 * x68
   + x54 * x69 + x55 * x70 + x56 * x71 + x57 * x72 + x58 * x73 + x59 * x74
   + x60 * x75 + x61 * x76 + x62 * x77 + x63 * x78 + x64 * x79 + x65 * x80
   + x66 * x81 + x67 * x82 + x68 * x83 ] >= 1
 qc3: [ x0 * x22 + x1 * x23 + x2 * x24 + x3 * x25 + x4 * x26 + x5 * x27
   + x6 * x28 + x7 * x29 + x8 * x30 + x9 * x31 + x10 * x32 + x11 * x33
   + x12 * x34 + x13 * x35 + x14 * x36 + x15 * x37 + x16 * x38 + x17 * x39
   + x18 * x40 + x19 * x41 + x20 * x42 + x21 * x43 + x22 * x44 + x23 * x45
   + x24 * x46 + x25 * x47 + x26 * x48 + x27 * x49 + x28 * x50 + x29 * x51
   + x30 * x52 + x31 * x53 + x32 * x54 + x33 * x55 + x34 * x56 + x35 * x57
   + x36 * x58 + x37 * x59 + x38 * x60 + x39 * x61 + x40 * x62 + x41 * x63
   + x42 * x64 + x43 * x65 + x44 * x66 + x45 * x67 + x46 * x68 + x47 * x69
   + x48 * x70 + x49 * x71 + x50 * x72 + x51 * x73 + x52 * x74 + x53 * x75
   + x54 * x76 + x55 * x77 + x56 * x78 + x57 * x79 + x58 * x80 + x59 * x81
   + x60 * x82 + x61 * x83 ] >= 1
 qc4: [ x0 * x31 + x1 * x32 + x2 * x33 + x3 * x34 + x4 * x35 + x5 * x36
   + x6 * x37 + x7 * x38 + x8 * x39 + x9 * x40 + x10 * x41 + x11 * x42
   + x12 * x43 + x13 * x44 + x14 * x45 + x15 * x46 + x16 * x47 + x17 * x48
   + x18 * x49 + x19 * x50 + x20 * x51 + x21 * x52 + x22 * x53 + x23 * x54
   + x24 * x55 + x25 * x56 + x26 * x57 + x27 * x58 + x28 * x59 + x29 * x60
   + x30 * x61 + x31 * x62 + x32 * x63 + x33 * x64 + x34 * x65 + x35 * x66
   + x36 * x67 + x37 * x68 + x38 * x69 + x39 * x70 + x40 * x71 + x41 * x72
   + x42 * x73 + x43 * x74 + x44 * x75 + x45 * x76 + x46 * x77 + x47 * x78
   + x48 * x79 + x49 * x80 + x50 * x81 + x51 * x82 + x52 * x83 ] >= 1
Bounds
Binaries
 x0 x1 x2 x3 x4 x5 x6 x7 x8 x9 x10 x11 x12 x13 x14 x15 x16 x17 x18 x19 x20
 x21 x22 x23 x24 x25 x26 x27 x28 x29 x30 x31 x32 x33 x34 x35 x36 x37 x38
 x39 x40 x41 x42 x43 x44 x45 x46 x47 x48 x49 x50 x51 x52 x53 x54 x55 x56
 x57 x58 x59 x60 x61 x62 x63 x64 x65 x66 x67 x68 x69 x70 x71 x72 x73 x74
 x75 x76 x77 x78 x79 x80 x81 x82 x83
End
