logs/miss/qp/miss-05-15-0.log

Gurobi 8.1.1 (win64) logging started 11/26/19 08:55:11

Changed value of parameter LogFile to logs/miss/qp/miss-05-15-0.log
   Prev: gurobi.log  Default: 
Changed value of parameter LogToConsole to 0
   Prev: 1  Min: 0  Max: 1  Default: 1
Changed value of parameter TimeLimit to 3600.0
   Prev: 1e+100  Min: 0.0  Max: 1e+100  Default: 1e+100
Optimize a model with 1 rows, 84 columns and 1 nonzeros
Model has 5 quadratic constraints
Variable types: 0 continuous, 84 integer (84 binary)
Coefficient statistics:
  Matrix range     [1e+00, 1e+00]
  QMatrix range    [1e+00, 1e+00]
  Objective range  [1e+00, 1e+00]
  Bounds range     [1e+00, 1e+00]
  RHS range        [1e+00, 1e+00]
  QRHS range       [1e+00, 1e+00]
Found heuristic solution: objective 84.0000000
Presolve removed 1 rows and 1 columns
Presolve time: 0.15s
Presolved: 0 rows, 83 columns, 0 nonzeros
Variable types: 0 continuous, 83 integer (83 binary)

Root relaxation: objective 1.000000e+00, 0 iterations, 0.02 seconds

    Nodes    |    Current Node    |     Objective Bounds      |     Work
 Expl Unexpl |  Obj  Depth IntInf | Incumbent    BestBd   Gap | It/Node Time

     0     0    2.00000    0    2   84.00000    2.00000  97.6%     -    0s
H    0     0                       6.0000000    2.00000  66.7%     -    0s
     0     0    2.00000    0    2    6.00000    2.00000  66.7%     -    0s
     0     0    2.00000    0    2    6.00000    2.00000  66.7%     -    0s
H    0     0                       5.0000000    2.00000  60.0%     -    0s
     0     2    2.00000    0    2    5.00000    2.00000  60.0%     -    0s
H 1305    27                       4.0000000    3.00000  25.0%   1.5    2s
  1728     7    3.00000   51    2    4.00000    3.00000  25.0%   1.6    5s
  2375    14    3.00000   70    -    4.00000    3.00000  25.0%   2.1   10s
  2780    24    3.00000   65    -    4.00000    3.00000  25.0%   2.4   15s
  3133    23    3.00000   65    -    4.00000    3.00000  25.0%   2.6   20s
  3452     8    3.00000   62    -    4.00000    3.00000  25.0%   2.7   25s
  3714     0    3.00000   66    -    4.00000    3.00000  25.0%   2.7   30s
  3904     0     cutoff   64         4.00000    3.00000  25.0%   2.7   35s

Explored 3979 nodes (10853 simplex iterations) in 39.60 seconds
Thread count was 4 (of 4 available processors)

Solution count 4: 4 5 6 84 

Optimal solution found (tolerance 1.00e-04)
Best objective 4.000000000000e+00, best bound 4.000000000000e+00, gap 0.0000%
Warning: Q constraint 0 doesn't have a name
